results/res_prop_muc/res_Cimatti_mathsat_cores/QF_LIA/SIMPLEBITADDER_COMPOSE_7.msat.smt.smt2.res
unsat
( c1
  c10
  c100
  c102
  c106
  c107
  c11
  c110
  c111
  c112
  c113
  c114
  c115
  c116
  c117
  c118
  c119
  c12
  c120
  c121
  c122
  c123
  c124
  c125
  c127
  c128
  c129
  c13
  c130
  c131
  c132
  c133
  c134
  c135
  c136
  c137
  c138
  c139
  c14
  c140
  c141
  c142
  c143
  c145
  c146
  c147
  c148
  c149
  c15
  c150
  c151
  c152
  c153
  c154
  c155
  c156
  c157
  c158
  c159
  c16
  c160
  c161
  c163
  c164
  c165
  c166
  c167
  c168
  c169
  c17
  c170
  c171
  c172
  c173
  c174
  c175
  c176
  c177
  c178
  c179
  c18
  c181
  c182
  c183
  c184
  c185
  c186
  c187
  c188
  c189
  c19
  c190
  c191
  c192
  c193
  c194
  c195
  c196
  c197
  c199
  c2
  c20
  c200
  c201
  c202
  c203
  c204
  c208
  c209
  c21
  c210
  c211
  c22
  c220
  c221
  c226
  c227
  c228
  c229
  c23
  c230
  c232
  c233
  c24
  c25
  c26
  c27
  c28
  c29
  c3
  c30
  c31
  c32
  c33
  c34
  c35
  c36
  c37
  c38
  c39
  c4
  c40
  c41
  c42
  c43
  c44
  c45
  c46
  c47
  c48
  c49
  c5
  c50
  c51
  c52
  c53
  c54
  c55
  c56
  c57
  c58
  c59
  c6
  c60
  c61
  c62
  c63
  c64
  c65
  c66
  c67
  c68
  c69
  c7
  c70
  c71
  c72
  c73
  c74
  c75
  c76
  c77
  c78
  c79
  c8
  c80
  c81
  c82
  c83
  c84
  c85
  c86
  c87
  c88
  c89
  c9
  c90
  c91
  c92
  c93
  c94
  c95
  c96
  c97
  c98
  c99 )
